spanwise_const_gauss_x
34
0.304252973103451 -0.000127662558375
1.000000000
10
0.999981340 0.000000093 0.000000000 0.000000000 0.000000000 -0.000564810 0.000370367 0.000000000 0.000000000 0.000000000 
0.000000125 0.999971625 0.000000125 0.000000000 0.000000000 0.000499993 -0.013499816 0.000499993 0.000000000 0.000000000 
0.000000000 0.000000125 0.999971625 0.000000125 0.000000000 0.000000000 0.000499993 -0.013499816 0.000499993 0.000000000 
0.000000000 0.000000000 0.000000125 0.999971625 0.000000125 0.000000000 0.000000000 0.000499993 -0.013499816 0.000499993 
0.000000000 0.000000000 0.000000000 0.000000125 0.999971750 0.000000000 0.000000000 0.000000000 0.000499993 -0.012999823 
0.000499995 0.000000000 0.000000000 0.000000000 0.000000000 0.999999859 0.000000093 0.000000000 0.000000000 0.000000000 
0.000000000 0.000499993 0.000000000 0.000000000 0.000000000 0.000000125 0.999996625 0.000000125 0.000000000 0.000000000 
0.000000000 0.000000000 0.000499993 0.000000000 0.000000000 0.000000000 0.000000125 0.999996625 0.000000125 0.000000000 
0.000000000 0.000000000 0.000000000 0.000499993 0.000000000 0.000000000 0.000000000 0.000000125 0.999996625 0.000000125 
0.000000000 0.000000000 0.000000000 0.000000000 0.000499993 0.000000000 0.000000000 0.000000000 0.000000125 0.999996750 
0.000370367
0.000000000
0.000000000
0.000000000
0.000000000
0.000000093
0.000000000
0.000000000
0.000000000
0.000000000
0.000000000 0.000000000 0.000000000 0.000000000 1.000000000 0.000000000 0.000000000 0.000000000 0.000000000 0.000000000 
1.000000000 0.000000000 0.000000000 0.000000000 0.000000000 0.000000000 0.000000000 0.000000000 0.000000000 0.000000000 
0.000000000
0.000000000
