'spanwise_const_gauss_x'
34
0.304252973103451 -0.000127662558375 
1.000000000
10
0.999962399 0.000000370 0.000000000 0.000000000 0.000000000 -0.001129608 0.000740724 0.000000000 0.000000000 0.000000000 
0.000000500 0.999936502 0.000000500 0.000000000 0.000000000 0.000999970 -0.026999203 0.000999966 0.000000000 0.000000000 
0.000000000 0.000000500 0.999936502 0.000000500 0.000000000 0.000000000 0.000999966 -0.026999203 0.000999966 0.000000000 
0.000000000 0.000000000 0.000000500 0.999936502 0.000000500 0.000000000 0.000000000 0.000999966 -0.026999203 0.000999966 
0.000000000 0.000000000 0.000000000 0.000000500 0.999937002 0.000000000 0.000000000 0.000000000 0.000999966 -0.025999237 
0.000999981 0.000000000 0.000000000 0.000000000 0.000000000 0.999999435 0.000000370 0.000000000 0.000000000 0.000000000 
0.000000000 0.000999971 0.000000000 0.000000000 0.000000000 0.000000500 0.999986500 0.000000500 0.000000000 0.000000000 
0.000000000 0.000000000 0.000999971 0.000000000 0.000000000 0.000000000 0.000000500 0.999986500 0.000000500 0.000000000 
0.000000000 0.000000000 0.000000000 0.000999971 0.000000000 0.000000000 0.000000000 0.000000500 0.999986500 0.000000500 
0.000000000 0.000000000 0.000000000 0.000000000 0.000999971 0.000000000 0.000000000 0.000000000 0.000000500 0.999987000 
0.000740727
0.000000000
0.000000000
0.000000000
0.000000000
0.000000370
0.000000000
0.000000000
0.000000000
0.000000000
1.000000000 0.000000000 0.000000000 0.000000000 0.000000000 0.000000000 0.000000000 0.000000000 0.000000000 0.000000000 
0.000000000 0.000000000 0.000000000 0.000000000 0.000000000 1.000000000 0.000000000 0.000000000 0.000000000 0.000000000 
0.000000000
0.000000000